c Chain-structured CNF
c Generated CNF instance
p cnf 30 86
-1 2 0
1 2 0
-2 3 0
2 3 0
-2 -1 1 0
-3 4 0
3 4 0
-3 -2 2 0
-4 5 0
4 5 0
-4 -3 3 0
-5 6 0
5 6 0
-5 -4 4 0
-6 7 0
6 7 0
-6 -5 5 0
-7 8 0
7 8 0
-7 -6 6 0
-8 9 0
8 9 0
-8 -7 7 0
-9 10 0
9 10 0
-9 -8 8 0
-10 11 0
10 11 0
-10 -9 9 0
-11 12 0
11 12 0
-11 -10 10 0
-12 13 0
12 13 0
-12 -11 11 0
-13 14 0
13 14 0
-13 -12 12 0
-14 15 0
14 15 0
-14 -13 13 0
-15 16 0
15 16 0
-15 -14 14 0
-16 17 0
16 17 0
-16 -15 15 0
-17 18 0
17 18 0
-17 -16 16 0
-18 19 0
18 19 0
-18 -17 17 0
-19 20 0
19 20 0
-19 -18 18 0
-20 21 0
20 21 0
-20 -19 19 0
-21 22 0
21 22 0
-21 -20 20 0
-22 23 0
22 23 0
-22 -21 21 0
-23 24 0
23 24 0
-23 -22 22 0
-24 25 0
24 25 0
-24 -23 23 0
-25 26 0
25 26 0
-25 -24 24 0
-26 27 0
26 27 0
-26 -25 25 0
-27 28 0
27 28 0
-27 -26 26 0
-28 29 0
28 29 0
-28 -27 27 0
-29 30 0
29 30 0
-29 -28 28 0
